p cnf 27 19
-20 5 0
9 21 17 -10 0
-14 -6 5 -22 -4 0
-14 5 -22 -4 13 0
-6 -13 -22 -4 14 0
-16 -23 -12 13 0
-16 -23 -13 14 0
-23 -14 -12 13 0
24 -14 -6 13 0
-24 -22 5 0
-16 20 -24 -21 -4 0
-8 25 3 7 0
23 5 -25 -6 -4 -19 0
-16 26 -12 -19 0
4 -26 7 -24 -8 -3 0
3 -26 22 8 -7 0
27 11 -18 15 0
1 19 -27 -21 -2 0
2 -12 -27 -25 -20 -1 0
